rc1_10_7

VEHICLE
NUMBER   CAPACITY
250     200

CUSTOMER
CUST NO. XCOORD.  YCOORD.  DEMAND  READY TIME DUE DATE  SERVICE TIME

0   250    250     0     0    1821     0
467 172 314 9 501 619 10
292 154 374 36 909 995 10
785 162 388 11 1090 1193 10
507 189 402 10 480 622 10
509 146 313 22 1160 1260 10
246 175 352 12 1619 1685 10
258 149 341 6 357 480 10
387 142 360 20 1490 1603 10
308 135 400 20 294 333 10
347 216 341 19 611 726 10
144 142 372 18 162 213 10
383 146 376 8 238 261 10
626 170 347 15 409 492 10
984 154 392 9 171 263 10
